(declare-fun temp23425_1 () (_ BitVec 64))
(declare-fun temp23425_2 () (_ BitVec 64))
(declare-fun var77740 () (_ BitVec 64))
(declare-fun k!0 () Bool)
(declare-fun ARGNAME_filter_NAMEEND_DIM () (_ BitVec 64))
(declare-fun ARGNAME_data_format_NAMEEND_STRFMT () (_ BitVec 64))
(declare-fun temp23425_3 () (_ BitVec 64))
(declare-fun ARGNAME_out_backprop_NAMEEND_DIM () (_ BitVec 64))
(declare-fun var77770 () (_ BitVec 64))
(declare-fun temp23425_4 () (_ BitVec 64))
(declare-fun temp23425_5 () (_ BitVec 64))
(declare-fun ARGNAME_filter_NAMEEND_DIMSIZE
             ()
             (Array (_ BitVec 64) (_ BitVec 64)))
(declare-fun temp23425_6 () (_ BitVec 64))
(declare-fun temp23425_7 () (_ BitVec 64))
(declare-fun temp23425_8 () (_ BitVec 64))
(declare-fun temp23425_9 () (_ BitVec 64))
(declare-fun temp23425_10 () (_ BitVec 64))
(declare-fun temp23425_11 () (_ BitVec 64))
(declare-fun temp23425_12 () (_ BitVec 64))
(declare-fun temp23425_13 () (_ BitVec 64))
(declare-fun temp23425_14 () (_ BitVec 64))
(declare-fun temp23425_15 () (_ BitVec 64))
(declare-fun temp23425_16 () (_ BitVec 64))
(declare-fun temp23425_17 () (_ BitVec 64))
(declare-fun temp23425_18 () (_ BitVec 64))
(declare-fun var77799 () (_ BitVec 64))
(declare-fun temp23425_19 () (_ BitVec 64))
(declare-fun ARGNAME_out_backprop_NAMEEND_DIMSIZE
             ()
             (Array (_ BitVec 64) (_ BitVec 64)))
(declare-fun temp23425_20 () (_ BitVec 64))
(declare-fun temp23425_21 () (_ BitVec 64))
(declare-fun temp23425_22 () (_ BitVec 64))
(declare-fun temp23425_23 () (_ BitVec 64))
(declare-fun temp23425_24 () (_ BitVec 64))
(declare-fun temp23425_25 () (_ BitVec 64))
(declare-fun temp23425_26 () (_ BitVec 64))
(declare-fun temp23425_27 () (_ BitVec 64))
(declare-fun temp23425_28 () (_ BitVec 64))
(declare-fun temp23425_29 () (_ BitVec 64))
(declare-fun temp23425_30 () (_ BitVec 64))
(declare-fun temp23425_31 () (_ BitVec 64))
(declare-fun temp23425_32 () (_ BitVec 64))
(declare-fun var77832 () (_ BitVec 64))
(declare-fun temp23425_33 () (_ BitVec 64))
(declare-fun temp23425_34 () (_ BitVec 64))
(declare-fun var77833 () (_ BitVec 64))
(declare-fun var77834 () (_ BitVec 64))
(declare-fun temp23425_35 () (_ BitVec 64))
(declare-fun temp23425_36 () (_ BitVec 64))
(declare-fun var275510 () (_ BitVec 64))
(declare-fun temp23425_37 () (_ BitVec 64))
(declare-fun var275528 () (_ BitVec 64))
(declare-fun temp23425_38 () (_ BitVec 64))
(declare-fun temp23425_39 () (_ BitVec 64))
(declare-fun var406582 () (_ BitVec 64))
(declare-fun temp23425_40 () (_ BitVec 64))
(declare-fun var406600 () (_ BitVec 64))
(declare-fun temp23425_41 () (_ BitVec 64))
(declare-fun temp23425_43 () (_ BitVec 64))
(declare-fun temp23425_42 () (_ BitVec 64))
(declare-fun temp23425_44 () (_ BitVec 64))
(declare-fun var603190 () (_ BitVec 64))
(declare-fun temp23425_45 () (_ BitVec 64))
(declare-fun var603208 () (_ BitVec 64))
(declare-fun temp23425_46 () (_ BitVec 64))
(declare-fun temp23425_48 () (_ BitVec 64))
(declare-fun temp23425_47 () (_ BitVec 64))
(declare-fun temp23425_50 () (_ BitVec 64))
(declare-fun temp23425_49 () (_ BitVec 64))
(declare-fun temp23425_52 () (_ BitVec 64))
(declare-fun temp23425_51 () (_ BitVec 64))
(declare-fun temp23425_53 () (_ BitVec 64))
(declare-fun var992306 () (_ BitVec 64))
(declare-fun temp23425_54 () (_ BitVec 64))
(declare-fun var1057842 () (_ BitVec 64))
(declare-fun temp23425_55 () (_ BitVec 64))
(declare-fun var1123378 () (_ BitVec 64))
(assert (or (= ARGNAME_data_format_NAMEEND_STRFMT #x0000000000000000)
    (= ARGNAME_data_format_NAMEEND_STRFMT #x0000000000000001)
    (= ARGNAME_data_format_NAMEEND_STRFMT #x0000000000000002)
    (= ARGNAME_data_format_NAMEEND_STRFMT #x0000000000000003)
    (= ARGNAME_data_format_NAMEEND_STRFMT #x0000000000000004)
    (= ARGNAME_data_format_NAMEEND_STRFMT #x0000000000000005)))
(assert (= temp23425_1 #x0000000000000005))
(assert (= var77740
   (ite (= ARGNAME_filter_NAMEEND_DIM temp23425_1)
        #x0000000000000001
        #x0000000000000000)))
(assert (= temp23425_2 #x0000000000000001))
(assert (= var77740 temp23425_2))
(assert (= temp23425_3 #x0000000000000005))
(assert (= var77770
   (ite (= ARGNAME_out_backprop_NAMEEND_DIM temp23425_3)
        #x0000000000000001
        #x0000000000000000)))
(assert (= temp23425_4 #x0000000000000001))
(assert (= var77770 temp23425_4))
(assert (= temp23425_5 #x0000000000000000))
(assert (= temp23425_6 (select ARGNAME_filter_NAMEEND_DIMSIZE temp23425_5)))
(assert (= temp23425_7 #x0000000000000001))
(assert (= temp23425_8 (select ARGNAME_filter_NAMEEND_DIMSIZE temp23425_7)))
(assert (= temp23425_9 #x0000000000000002))
(assert (= temp23425_10 (select ARGNAME_filter_NAMEEND_DIMSIZE temp23425_9)))
(assert (= temp23425_11 #x0000000000000003))
(assert (= temp23425_12 (select ARGNAME_filter_NAMEEND_DIMSIZE temp23425_11)))
(assert (= temp23425_13 #x0000000000000004))
(assert (= temp23425_14 (select ARGNAME_filter_NAMEEND_DIMSIZE temp23425_13)))
(assert (= temp23425_15 #x0000000000000005))
(assert (= temp23425_16 (select ARGNAME_filter_NAMEEND_DIMSIZE temp23425_15)))
(assert (= temp23425_17 #x0000000000000003))
(assert (= temp23425_18 (select ARGNAME_filter_NAMEEND_DIMSIZE temp23425_17)))
(assert (= var77799 temp23425_18))
(assert (= temp23425_19 #x0000000000000000))
(assert (= temp23425_20 (select ARGNAME_out_backprop_NAMEEND_DIMSIZE temp23425_19)))
(assert (= temp23425_21 #x0000000000000001))
(assert (= temp23425_22 (select ARGNAME_out_backprop_NAMEEND_DIMSIZE temp23425_21)))
(assert (= temp23425_23 #x0000000000000002))
(assert (= temp23425_24 (select ARGNAME_out_backprop_NAMEEND_DIMSIZE temp23425_23)))
(assert (= temp23425_25 #x0000000000000003))
(assert (= temp23425_26 (select ARGNAME_out_backprop_NAMEEND_DIMSIZE temp23425_25)))
(assert (= temp23425_27 #x0000000000000004))
(assert (= temp23425_28 (select ARGNAME_out_backprop_NAMEEND_DIMSIZE temp23425_27)))
(assert (= temp23425_29 #x0000000000000005))
(assert (= temp23425_30 (select ARGNAME_out_backprop_NAMEEND_DIMSIZE temp23425_29)))
(assert (= temp23425_31 #x0000000000000004))
(assert (= temp23425_32 (select ARGNAME_out_backprop_NAMEEND_DIMSIZE temp23425_31)))
(assert (= var77832 temp23425_32))
(assert (= temp23425_33 #x0000000000000004))
(assert (= temp23425_34 (select ARGNAME_filter_NAMEEND_DIMSIZE temp23425_33)))
(assert (= var77833 temp23425_34))
(assert (= var77834 (ite (= var77832 var77833) #x0000000000000001 #x0000000000000000)))
(assert (= temp23425_35 #x0000000000000001))
(assert (= var77834 temp23425_35))
(assert (= temp23425_36 #x0000000000000001))
(assert (= var275510 temp23425_36))
(assert (= temp23425_37 #x0000000000000001))
(assert (= var275528
   (ite (bvslt var275510 temp23425_37) #x0000000000000001 #x0000000000000000)))
(assert (= temp23425_38 #x0000000000000000))
(assert (= var275528 temp23425_38))
(assert (= temp23425_39 #x0000000000000001))
(assert (= var406582 temp23425_39))
(assert (= temp23425_40 #x0000000000000001))
(assert (= var406600
   (ite (bvslt var406582 temp23425_40) #x0000000000000001 #x0000000000000000)))
(assert (= temp23425_41 #x0000000000000000))
(assert (= var406600 temp23425_41))
(assert (= temp23425_43 #x0000000000000000))
(assert (= temp23425_42 temp23425_43))
(assert (= temp23425_44 #x0000000000000001))
(assert (= var603190 temp23425_44))
(assert (= temp23425_45 #x0000000000000001))
(assert (= var603208
   (ite (bvslt var603190 temp23425_45) #x0000000000000001 #x0000000000000000)))
(assert (= temp23425_46 #x0000000000000000))
(assert (= var603208 temp23425_46))
(assert (= temp23425_48 #x00000000000000ff))
(assert (= temp23425_47 temp23425_48))
(assert (= temp23425_50 #x00000000000000ff))
(assert (= temp23425_49 temp23425_50))
(assert (= temp23425_52 #x00000000000000ff))
(assert (= temp23425_51 temp23425_52))
(assert (= temp23425_53 #x0000000000008000))
(assert (= var992306 temp23425_53))
(assert (= temp23425_54 #x0000000000040000))
(assert (= var1057842 temp23425_54))
(assert (= temp23425_55 #x0000000000200000))
(assert (= var1123378 temp23425_55))
(model-add temp23425_1 () (_ BitVec 64) #x0000000000000005)
(model-add temp23425_2 () (_ BitVec 64) #x0000000000000001)
(model-add var77740 () (_ BitVec 64) #x0000000000000001)
(model-del k!0)
(model-add ARGNAME_filter_NAMEEND_DIM
           ()
           (_ BitVec 64)
           (ite k!0 #x0000000000000005 (bvnot #x0000000000000005)))


